# Solution for model MOD008
# Objective value = 307
C2. 0
C3. 0
C4. 1
C5. 0
C6. 0
C7. 0
C8. 0
C9. 0
C10. 0
C11. 0
C12. 0
C13. 0
C14. 0
C15. 0
C16. 0
C17. 0
C18. 0
C19. 0
C20. 0
C21. 0
C22. 0
C23. 0
C24. 0
C25. 0
C26. 0
C27. 0
C28. 0
C29. 0
C30. 0
C31. 0
C32. 0
C33. 0
C34. 0
C35. 0
C36. 0
C37. 0
C38. 0
C39. 0
C40. 0
C41. 0
C42. 0
C43. 0
C44. 0
C45. 0
C46. 0
C47. 0
C48. 0
C49. 0
C50. 0
C51. 0
C52. 0
C53. 0
C54. 0
C55. 0
C56. 0
C57. 0
C58. 0
C59. 0
C60. 0
C61. 1
C62. 0
C63. 0
C64. 0
C65. 0
C66. 0
C67. 0
C68. 0
C69. 0
C70. 0
C71. 1
C72. 0
C73. 0
C74. 0
C75. 0
C76. 0
C77. 0
C78. 0
C79. 0
C80. 0
C81. 0
C82. 0
C83. 0
C84. 0
C85. 0
C86. 0
C87. 0
C88. 0
C89. 0
C90. 0
C91. 0
C92. 0
C93. 0
C94. 0
C95. 0
C96. 0
C97. 0
C98. 0
C99. 0
C100. 0
C101. 0
C102. 0
C103. 0
C104. 0
C105. 0
C106. 0
C107. 0
C108. 0
C109. 0
C110. 0
C111. 0
C112. 0
C113. 0
C114. 0
C115. 0
C116. 0
C117. 0
C118. 1
C119. 0
C120. 0
C121. 0
C122. 0
C123. 0
C124. 0
C125. 1
C126. 0
C127. 0
C128. 0
C129. 0
C130. 0
C131. 0
C132. 0
C133. 0
C134. 0
C135. 0
C136. 0
C137. 0
C138. 0
C139. 0
C140. 0
C141. 0
C142. 0
C143. 0
C144. 0
C145. 0
C146. 0
C147. 0
C148. 0
C149. 0
C150. 0
C151. 0
C152. 0
C153. 0
C154. 0
C155. 0
C156. 0
C157. 0
C158. 0
C159. 0
C160. 0
C161. 0
C162. 0
C163. 0
C164. 0
C165. 0
C166. 0
C167. 0
C168. 0
C169. 0
C170. 0
C171. 0
C172. 0
C173. 0
C174. 0
C175. 0
C176. 0
C177. 0
C178. 0
C179. 0
C180. 0
C181. 0
C182. 0
C183. 0
C184. 0
C185. 0
C186. 0
C187. 0
C188. 0
C189. 0
C190. 0
C191. 0
C192. 0
C193. 0
C194. 0
C195. 0
C196. 0
C197. 0
C198. 0
C199. 0
C200. 0
C201. 0
C202. 0
C203. 0
C204. 0
C205. 0
C206. 0
C207. 0
C208. 0
C209. 0
C210. 0
C211. 0
C212. 0
C213. 0
C214. 0
C215. 0
C216. 0
C217. 0
C218. 0
C219. 0
C220. 0
C221. 0
C222. 0
C223. 0
C224. 0
C225. 0
C226. 0
C227. 0
C228. 0
C229. 0
C230. 0
C231. 0
C232. 0
C233. 0
C234. 0
C235. 0
C236. 0
C237. 0
C238. 0
C239. 0
C240. 0
C241. 0
C242. 0
C243. 0
C244. 0
C245. 0
C246. 0
C247. 0
C248. 0
C249. 0
C250. 0
C251. 0
C252. 0
C253. 0
C254. 0
C255. 0
C256. 0
C257. 0
C258. 0
C259. 0
C260. 0
C261. 0
C262. 0
C263. 0
C264. 0
C265. 0
C266. 0
C267. 0
C268. 0
C269. 0
C270. 0
C271. 0
C272. 0
C273. 0
C274. 0
C275. 0
C276. 0
C277. 0
C278. 0
C279. 0
C280. 0
C281. 0
C282. 0
C283. 0
C284. 0
C285. 0
C286. 0
C287. 0
C288. 0
C289. 0
C290. 0
C291. 0
C292. 0
C293. 0
C294. 0
C295. 0
C296. 0
C297. 0
C298. 0
C299. 0
C300. 0
C301. 0
C302. 0
C303. 0
C304. 0
C305. 0
C306. 0
C307. 0
C308. 0
C309. 0
C310. 0
C311. 0
C312. 0
C313. 0
C314. 0
C315. 0
C316. 0
C317. 0
C318. 0
C319. 0
C320. 0
